654,353
707,393
708,491
435,745
597,939
802,494
702,385
761,446
766,433
999,88
575,300
539,360
311,526
559,646
518,726
635,702
448,173
778,336
998,842
681,76
649,199
639,364
596,379
695,494
558,575
937,489
1080,535
